branch-and-cut/resultados/B/b16.sol
# Objective value = 127
e[1,20] 0
e[20,1] 0
e[1,52] 0
e[52,1] 0
e[1,54] 0
e[54,1] 0
e[1,68] 0
e[68,1] 0
e[2,1] 0
e[1,2] 0
e[2,42] 0
e[42,2] 0
e[2,71] 0
e[71,2] 0
e[2,91] 0
e[91,2] 0
e[2,98] 0
e[98,2] 0
e[3,31] 0
e[31,3] 0
e[5,3] 0
e[3,5] 0
e[5,40] 0
e[40,5] 0
e[5,55] 0
e[55,5] 0
e[5,63] 1
e[63,5] 1
e[6,11] 0
e[11,6] 0
e[6,23] 0
e[23,6] 0
e[6,43] 0
e[43,6] 0
e[6,74] 0
e[74,6] 0
e[7,30] 0
e[30,7] 0
e[7,59] 0
e[59,7] 0
e[8,35] 0
e[35,8] 0
e[9,16] 0
e[16,9] 0
e[10,84] 0
e[84,10] 0
e[10,91] 0
e[91,10] 0
e[11,63] 1
e[63,11] 1
e[12,20] 0
e[20,12] 0
e[13,4] 0
e[4,13] 0
e[14,10] 0
e[10,14] 0
e[14,65] 0
e[65,14] 0
e[15,66] 0
e[66,15] 0
e[16,11] 1
e[11,16] 1
e[17,6] 0
e[6,17] 0
e[17,14] 0
e[14,17] 0
e[17,18] 0
e[18,17] 0
e[17,29] 0
e[29,17] 0
e[17,54] 0
e[54,17] 0
e[18,7] 0
e[7,18] 0
e[18,61] 0
e[61,18] 0
e[18,78] 0
e[78,18] 0
e[18,88] 0
e[88,18] 0
e[19,28] 1
e[28,19] 1
e[20,59] 1
e[59,20] 1
e[20,61] 0
e[61,20] 0
e[21,44] 0
e[44,21] 0
e[22,32] 0
e[32,22] 0
e[23,45] 0
e[45,23] 0
e[23,89] 0
e[89,23] 0
e[23,91] 0
e[91,23] 0
e[23,97] 0
e[97,23] 0
e[25,13] 0
e[13,25] 0
e[25,34] 0
e[34,25] 0
e[25,87] 0
e[87,25] 0
e[26,65] 0
e[65,26] 0
e[27,5] 1
e[5,27] 1
e[27,39] 0
e[39,27] 0
e[27,57] 1
e[57,27] 1
e[28,47] 1
e[47,28] 1
e[28,55] 0
e[55,28] 0
e[28,59] 1
e[59,28] 1
e[28,62] 0
e[62,28] 0
e[29,33] 1
e[33,29] 1
e[29,80] 1
e[80,29] 1
e[30,14] 0
e[14,30] 0
e[30,34] 0
e[34,30] 0
e[30,69] 0
e[69,30] 0
e[30,86] 0
e[86,30] 0
e[31,41] 0
e[41,31] 0
e[31,47] 0
e[47,31] 0
e[31,96] 1
e[96,31] 1
e[32,21] 0
e[21,32] 0
e[32,58] 1
e[58,32] 1
e[32,72] 1
e[72,32] 1
e[35,2] 0
e[2,35] 0
e[35,45] 0
e[45,35] 0
e[35,77] 0
e[77,35] 0
e[36,72] 0
e[72,36] 0
e[36,77] 0
e[77,36] 0
e[38,6] 0
e[6,38] 0
e[39,18] 0
e[18,39] 0
e[39,87] 0
e[87,39] 0
e[42,4] 0
e[4,42] 0
e[42,9] 0
e[9,42] 0
e[42,31] 1
e[31,42] 1
e[42,50] 0
e[50,42] 0
e[42,86] 1
e[86,42] 1
e[42,94] 0
e[94,42] 0
e[42,97] 0
e[97,42] 0
e[43,22] 0
e[22,43] 0
e[43,59] 0
e[59,43] 0
e[43,85] 0
e[85,43] 0
e[44,45] 0
e[45,44] 0
e[44,64] 0
e[64,44] 0
e[44,82] 0
e[82,44] 0
e[45,15] 0
e[15,45] 0
e[45,95] 0
e[95,45] 0
e[46,12] 0
e[12,46] 0
e[46,22] 0
e[22,46] 0
e[46,25] 0
e[25,46] 0
e[46,82] 0
e[82,46] 0
e[47,52] 0
e[52,47] 0
e[47,57] 1
e[57,47] 1
e[49,31] 0
e[31,49] 0
e[49,64] 0
e[64,49] 0
e[49,70] 0
e[70,49] 0
e[50,17] 0
e[17,50] 0
e[50,28] 0
e[28,50] 0
e[50,53] 0
e[53,50] 0
e[51,71] 0
e[71,51] 0
e[52,15] 0
e[15,52] 0
e[52,24] 0
e[24,52] 0
e[52,27] 0
e[27,52] 0
e[52,76] 0
e[76,52] 0
e[52,93] 0
e[93,52] 0
e[53,4] 0
e[4,53] 0
e[53,49] 0
e[49,53] 0
e[53,81] 1
e[81,53] 1
e[53,94] 0
e[94,53] 0
e[55,20] 0
e[20,55] 0
e[56,30] 0
e[30,56] 0
e[56,63] 0
e[63,56] 0
e[57,61] 0
e[61,57] 0
e[57,76] 0
e[76,57] 0
e[59,46] 0
e[46,59] 0
e[59,60] 0
e[60,59] 0
e[60,8] 0
e[8,60] 0
e[60,47] 0
e[47,60] 0
e[60,50] 0
e[50,60] 0
e[61,13] 0
e[13,61] 0
e[61,38] 0
e[38,61] 0
e[61,56] 0
e[56,61] 0
e[61,99] 0
e[99,61] 0
e[62,42] 0
e[42,62] 0
e[63,26] 0
e[26,63] 0
e[65,95] 0
e[95,65] 0
e[67,72] 0
e[72,67] 0
e[68,54] 0
e[54,68] 0
e[70,98] 0
e[98,70] 0
e[71,24] 1
e[24,71] 1
e[71,38] 1
e[38,71] 1
e[71,90] 0
e[90,71] 0
e[73,8] 0
e[8,73] 0
e[73,37] 0
e[37,73] 0
e[75,40] 0
e[40,75] 0
e[76,30] 0
e[30,76] 0
e[76,39] 0
e[39,76] 0
e[76,83] 0
e[83,76] 0
e[77,25] 0
e[25,77] 0
e[77,92] 0
e[92,77] 0
e[78,26] 0
e[26,78] 0
e[78,31] 0
e[31,78] 0
e[78,51] 0
e[51,78] 0
e[78,72] 0
e[72,78] 0
e[79,66] 0
e[66,79] 0
e[80,67] 0
e[67,80] 0
e[82,39] 0
e[39,82] 0
e[83,6] 0
e[6,83] 0
e[83,48] 0
e[48,83] 0
e[84,19] 0
e[19,84] 0
e[84,83] 0
e[83,84] 0
e[84,92] 0
e[92,84] 0
e[85,97] 0
e[97,85] 0
e[85,98] 0
e[98,85] 0
e[86,7] 0
e[7,86] 0
e[86,8] 1
e[8,86] 1
e[86,24] 1
e[24,86] 1
e[86,68] 1
e[68,86] 1
e[86,77] 0
e[77,86] 0
e[86,81] 1
e[81,86] 1
e[87,7] 0
e[7,87] 0
e[87,21] 0
e[21,87] 0
e[87,56] 0
e[56,87] 0
e[87,68] 0
e[68,87] 0
e[87,73] 0
e[73,87] 0
e[87,83] 0
e[83,87] 0
e[88,23] 0
e[23,88] 0
e[88,89] 0
e[89,88] 0
e[89,26] 0
e[26,89] 0
e[89,37] 0
e[37,89] 0
e[89,49] 0
e[49,89] 0
e[89,55] 0
e[55,89] 0
e[89,79] 0
e[79,89] 0
e[90,36] 1
e[36,90] 1
e[90,38] 1
e[38,90] 1
e[90,54] 0
e[54,90] 0
e[91,28] 1
e[28,91] 1
e[91,75] 1
e[75,91] 1
e[91,90] 0
e[90,91] 0
e[91,96] 1
e[96,91] 1
e[92,0] 0
e[0,92] 0
e[93,19] 0
e[19,93] 0
e[93,70] 0
e[70,93] 0
e[94,22] 0
e[22,94] 0
e[94,37] 0
e[37,94] 0
e[95,49] 0
e[49,95] 0
e[96,33] 1
e[33,96] 1
e[96,61] 0
e[61,96] 0
e[96,72] 1
e[72,96] 1
e[98,52] 0
e[52,98] 0
e[98,74] 0
e[74,98] 0
e[98,82] 0
e[82,98] 0
